DATASET = "thpack4";
INSTANCE = "002";

WIDTH = 233;
HEIGHT = 220;
LENGTH = 587;

NO_OF_SHAPES = 10;
size = [|
  49,25,21 |
  60,51,41 |
  103,76,64 |
  95,70,62 |
  111,49,26 |
  85,84,72 |
  48,36,31 |
  86,76,38 |
  71,48,47 |
  90,43,33 |
|];

verticality = [|
  0,1,1 |
  1,1,1 |
  1,1,1 |
  1,1,1 |
  0,1,1 |
  1,1,1 |
  1,1,1 |
  0,0,1 |
  1,1,1 |
  0,1,1 |
|];

box_count = [
  13,
  9,
  11,
  14,
  13,
  16,
  12,
  11,
  16,
  8,
];
